c instance by G2
c solution = 01100010111
c Known solution cost is 611 
p cnf 11 30
w 61 80 79 24 17 3 79 71 68 46 83
-9 11 1 0
6 8 9 0
6 1 9 0
8 -7 -6 0
1 7 8 0
-1 -10 -4 0
7 -8 -3 0
1 -2 -8 0
8 -3 -4 0
6 -4 1 0
11 5 -2 0
3 4 10 0
3 -5 -10 0
-9 11 -8 0
-5 -3 -7 0
-8 -1 9 0
-1 5 6 0
-5 4 1 0
2 -7 8 0
-3 -11 9 0
9 -2 -6 0
-7 10 5 0
-8 -11 -9 0
-4 -6 -8 0
-3 2 -7 0
-10 9 -7 0
-3 8 2 0
-11 3 8 0
5 1 11 0
5 -4 -11 0
